c --- [ banner ] -------------------------------------------------------------
c 
c CaDiCaL Radically Simplified CDCL SAT Solver
c Copyright (c) 2016-2021 A. Biere, M. Fleury, N. Froleyks
c 
c Version 1.5.2 a5f15211db36c3956764e18194dd5bd63bf3b5e6
c g++ (GCC) 9.3.0 -Wall -Wextra -O3 -DNDEBUG
c Fri Oct 21 01:27:37 EDT 2022 Linux gra-login3 3.10.0-1160.66.1.el7.x86_64 x86_64
c 
c --- [ limit ] --------------------------------------------------------------
c 
c setting conflict limit to 200000 conflicts (due to '200000')
c 
c --- [ parsing input ] ------------------------------------------------------
c 
c reading DIMACS file from '33.cubes5825.adj'
c opening file to read '33.cubes5825.adj'
c found 'p cnf 6160 1595480' header
c parsed 1595480 clauses in 19.35 seconds process time
c closing file '33.cubes5825.adj'
c after reading 1457566810 bytes 1390.0 MB
c 
c --- [ options ] ------------------------------------------------------------
c 
c all options are set to their default value
c 
c --- [ solving ] ------------------------------------------------------------
c 
c time measured in process time since initialization
c 
c  seconds    reductions  redundant   irredundant
c          MB     restarts       trail       variables
c            level   conflicts       glue         remaining
c 
c * 19.36 1379  0 0   0    0    0  0% 0 1595422 2359 38%
c { 19.89 1418  0 0   0    0    0  0% 0 1595422 2359 38%
c i 20.12 1422 1195 0   0    4    3 33% 1 1595422 2349 38%
c i 24.67 1507 282 0  17  189  104 27% 18 1595422 2342 38%
c - 29.56 1452 182 1  20  300  139 25% 16 371377 2339 38%
c i 29.85 1453 170 1  20  323  152 25% 15 371377 2338 38%
c i 29.92 1453 165 1  20  334  159 26% 15 371377 2337 38%
c i 29.99 1453 161 1  20  344  166 26% 15 371377 2336 38%
c i 29.99 1453 160 1  20  347  168 26% 15 371377 2335 38%
c i 29.99 1453 160 1  20  348  168 26% 15 371377 2334 38%
c i 30.12 1453 152 1  24  405  213 26% 15 371377 2330 38%
c i 30.14 1453 151 1  24  412  217 25% 14 371377 2329 38%
c i 30.46 1453 147 1  30  439  240 25% 16 371377 2325 38%
c i 31.47 1454 137 1  44  517  301 26% 17 371377 2324 38%
c i 31.48 1454 136 1  46  526  306 26% 17 371377 2323 38%
c i 31.54 1454 134 1  48  533  312 26% 17 371377 2322 38%
c i 31.57 1453 133 1  49  540  318 26% 17 371377 2321 38%
c i 31.73 1454 128 1  56  567  343 26% 18 371377 2320 38%
c i 33.04 1455 119 1  85  688  428 26% 20 371377 2319 38%
c i 34.00 1456 115 1 101  746  477 26% 21 371377 2318 38%
c 
c  seconds     reductions  redundant   irredundant
c          MB      restarts       trail       variables
c             level   conflicts       glue         remaining
c 
c i 35.04 1456 103 1 117  874  579 27% 21 371377 2317 38%
c i 35.24 1456 95 1 117  957  631 27% 20 371377 2316 38%
c i 35.26 1456 95 1 117  967  640 27% 20 371377 2315 38%
c i 35.30 1456 93 1 117  999  658 27% 20 371377 2314 38%
c } 35.31 1456 93 1 117 1000  659 27% 20 371377 2314 38%
c [ 35.31 1456  0 1 117 1000  659  0% 0 371377 2314 38%
c O 35.31 1456  5 1 117 1002  660 18% 1 371377 2314 38%
c i 35.31 1456  5 1 117 1002  660 18% 1 371377 2305 37%
c i 35.52 1456  7 1 117 1149  675 19% 7 371377 2304 37%
c i 35.73 1456 12 1 117 1197  718 22% 10 371377 2303 37%
c i 35.74 1456 12 1 117 1200  720 22% 10 371377 2302 37%
c i 35.81 1456 15 1 117 1240  754 24% 12 371377 2301 37%
c - 36.64 1584 15 2 117 1241  708 24% 12 370102 2301 37%
c i 36.85 1584 16 2 117 1275  728 25% 14 370102 2300 37%
c i 36.86 1584 17 2 117 1278  728 25% 14 370102 2299 37%
c i 36.87 1584 17 2 117 1289  736 25% 14 370102 2298 37%
c i 36.94 1584 19 2 117 1352  773 27% 16 370102 2297 37%
c i 37.18 1584 22 2 117 1691  956 29% 19 370102 2296 37%
c i 37.21 1584 22 2 117 1727  975 30% 19 370102 2295 37%
c i 37.48 1584 22 2 118 2258 1248 31% 19 370102 2294 37%
c 
c  seconds    reductions  redundant   irredundant
c          MB     restarts       trail       variables
c            level   conflicts       glue         remaining
c 
c i 37.48 1584 22 2 118 2259 1248 31% 19 370102 2293 37%
c i 37.48 1584 22 2 118 2262 1246 31% 19 370102 2292 37%
c i 37.48 1584 22 2 118 2264 1247 31% 19 370102 2291 37%
c i 37.49 1584 22 2 118 2285 1259 31% 19 370102 2290 37%
c i 37.54 1584 22 2 118 2342 1283 31% 19 370102 2289 37%
c - 38.22 1581 22 3 118 2654 1120 31% 19 370066 2289 37%
c ] 38.85 1527 22 3 118 3000 1301 54% 19 370066 2289 37%
c { 38.85 1527 93 3 118 3000 1301 73% 20 370066 2289 37%
c F 38.89 1527 92 3 118 3005 1305 73% 20 370066 2289 37%
c i 39.21 1527 91 3 118 3028 1322 72% 20 370066 2288 37%
c i 39.35 1527 89 3 120 3070 1355 71% 20 370066 2287 37%
c i 39.90 1527 90 3 131 3115 1393 70% 21 370066 2285 37%
c i 40.53 1527 88 3 142 3188 1450 68% 21 370066 2284 37%
c i 40.61 1527 87 3 142 3210 1471 68% 21 370066 2283 37%
c i 40.73 1527 86 3 142 3233 1490 67% 21 370066 2282 37%
c i 40.82 1527 83 3 142 3285 1529 67% 20 370066 2281 37%
c i 40.86 1527 82 3 142 3305 1539 66% 20 370066 2280 37%
c i 41.07 1527 81 3 143 3376 1576 65% 20 370066 2279 37%
c i 41.22 1527 75 3 143 3507 1680 64% 20 370066 2278 37%
c i 41.30 1527 74 3 143 3547 1702 64% 20 370066 2277 37%
c 
c  seconds    reductions  redundant   irredundant
c          MB     restarts       trail       variables
c            level   conflicts       glue         remaining
c 
c i 41.64 1527 66 3 147 3865 1945 62% 19 370066 2276 37%
c - 44.15 1524 55 4 200 4535 1561 53% 19 370027 2276 37%
c i 45.55 1524 54 4 226 4740 1711 52% 19 370027 2275 37%
c i 45.92 1524 54 4 234 4797 1758 52% 19 370027 2274 37%
c i 46.10 1524 52 4 234 4921 1858 52% 19 370027 2273 37%
c i 46.10 1524 52 4 234 4922 1858 52% 19 370027 2272 37%
c i 46.10 1524 52 4 234 4923 1858 52% 19 370027 2271 37%
c i 46.23 1524 52 4 234 4969 1891 52% 19 370027 2270 37%
c i 46.29 1524 52 4 234 4983 1900 52% 19 370027 2269 37%
c d 47.06 1524 52 4 234 5002 1916 52% 19 369257 2257 37%
c 2 47.15 1524 52 4 234 5002 2870 52% 19 369257 2257 37%
c p 56.34 1524 52 4 234 5002 5390 52% 19 369257 2194 36%
c # 63.33 1524 50 4 402 6006 6238 50% 21 369257 2194 36%
c - 66.52 1509 45 5 414 6891 2934 50% 20 369070 2194 36%
c } 66.94 1509 45 5 414 7001 3007 50% 20 369070 2194 36%
c [ 66.94 1509 22 5 414 7001 3007 54% 19 369070 2194 36%
c - 69.16 1366 24 6 416 9713 3337 51% 21 369070 2194 36%
c I 69.41 1367 24 6 416 10009 3497 51% 21 369070 2194 36%
c - 80.66 1367 32 7 418 13004 3960 49% 25 369070 2194 36%
c ] 84.61 1367 34 7 419 15002 5453 49% 27 369070 2194 36%
c 
c  seconds    reductions   redundant   irredundant
c          MB     restarts        trail       variables
c            level    conflicts       glue         remaining
c 
c { 84.61 1367 45 7 419 15002 5453 50% 20 369070 2194 36%
c p 87.43 1367 45 7 419 15002 9071 50% 20 369070 2194 36%
c B 87.85 1367 45 7 419 15011 9079 50% 20 369070 2194 36%
c - 94.15 1367 42 8 566 16765 4889 50% 21 369070 2194 36%
c s 96.98 1367 37 8 567 18804 6346 49% 20 365518 2194 36%
c v 104.24 1367 37 8 567 18804 6346 49% 20 365506 2194 36%
c t 104.38 1367 37 8 567 18804 6335 49% 20 365495 2194 36%
c e 105.77 1369 37 8 567 18804 6132 49% 20 363086 905 15%
c s 105.89 1369 37 8 567 18804 6131 49% 20 362138 905 15%
c - 114.77 1369 37 9 824 20997 5652 69% 21 362138 905 15%
c W 115.01 1370 37 9 824 21015 5667 69% 21 362138 905 15%
c - 127.41 1369 36 10 1128 25673 5884 70% 22 362138 905 15%
c F 128.74 1370 34 10 1142 28016 7303 70% 21 362138 905 15%
c p 134.97 1369 32 10 1170 30003 10520 70% 20 362138 904 15%
c - 136.27 1369 31 11 1170 30818 6217 70% 20 362135 904 15%
c } 136.45 1369 31 11 1170 31003 6339 70% 20 362135 904 15%
c [ 136.45 1369 34 11 1170 31003 6339 123% 27 362135 904 15%
c B 139.36 1369 30 11 1173 36020 9404 102% 25 362135 904 15%
c - 139.99 1370 30 12 1173 36429 6619 101% 25 362135 904 15%
c ] 142.98 1370 31 12 1176 41757 10323 93% 26 362135 904 15%
c 
c  seconds     reductions      redundant   irredundant
c           MB      restarts          trail       variables
c             level      conflicts        glue        remaining
c 
c 1 142.98 1370 31 12 1176 41757 10323 93% 26 362135 904 15%
c 
c --- [ writing output ] -----------------------------------------------------
c 
c writing simplified CNF to DIMACS file 'simp/33.cubes5825.adj.simp1'
c * 142.98 1370 31 12 1176 41757 10323 93% 26 362135 904 15%
c opening file to write 'simp/33.cubes5825.adj.simp1'
c writing 'p cnf 6160 362135' header
c closing file 'simp/33.cubes5825.adj.simp1'
c after writing 162273079 bytes 154.8 MB
c wrote 362135 clauses in 1.19 seconds process time
c 
c --- [ writing extension ] --------------------------------------------------
c 
c writing extension stack to 'simp/33.cubes5825.adj.ext1'
c opening file to write 'simp/33.cubes5825.adj.ext1'
c closing file 'simp/33.cubes5825.adj.ext1'
c after writing 86022 bytes 0.1 MB
c wrote 3844 witnesses in 0.00 seconds process time
c 
c --- [ result ] -------------------------------------------------------------
c 
s SATISFIABLE
c 
c --- [ run-time profiling ] -------------------------------------------------
c 
c process time taken by individual solving procedures
c (percentage relative to process time for solving)
c 
c        96.56   78.11% search
c        68.07   55.07% unstable
c        27.75   22.45% stable
c        27.06   21.89% simplify
c        19.35   15.66% parse
c        15.91   12.87% probe
c         7.35    5.95% vivify
c         2.53    2.05% elim
c         0.53    0.43% lucky
c         0.26    0.21% subsume
c         0.21    0.17% walk
c         0.16    0.13% ternary
c   =================================
c       123.62   85.75% solve
c 
c last line shows process time for solving
c (percentage relative to total process time)
c 
c --- [ statistics ] ---------------------------------------------------------
c 
c chronological:              7577        18.15 %  of conflicts
c conflicts:                 41757       337.79    per second
c decisions:                114702       927.86    per second
c eliminated:                 1289        20.93 %  of all variables
c fixed:                       811        13.17 %  of all variables
c learned:                   40915        97.98 %  per conflict
c learned_lits:            7403862       100.00 %  learned literals
c minimized:                     0         0.00 %  learned literals
c shrunken:                4789683        64.69 %  learned literals
c minishrunken:             561405         7.58 %  learned literals
c propagations:            4465038         0.04 M  per second
c reduced:                   17821        42.68 %  per conflict
c rephased:                      8      5219.62    interval
c restarts:                   1176        35.51    interval
c stabilizing:                   3        49.70 %  of conflicts
c substituted:                  12         0.19 %  of all variables
c subsumed:                  17119         0.48 %  of all clauses
c strengthened:               6054         0.17 %  of all clauses
c ternary:                    2438         0.61 %  of resolved
c vivified:                     29         0.00 %  of all clauses
c walked:                        1     41757.00    interval
c weakened:                   3033         3.02    average size
c 
c seconds are measured in process time for solving
c 
c --- [ resources ] ----------------------------------------------------------
c 
c total process time since initialization:       144.16    seconds
c total real time since initialization:          145.47    seconds
c maximum resident set size of process:         1745.53    MB
c 
c --- [ shutting down ] ------------------------------------------------------
c 
c exit 10
WARNING! DIMACS header mismatch: wrong number of variables.
============================[ Problem Statistics ]=============================
|                                                                             |
|  Number of variables:          3498                                         |
|  Number of clauses:          362137                                         |
|  Parse time:                   2.23 s                                       |
|  Simplification time:          0.06 s                                       |
|                                                                             |
============================[ Search Statistics ]====================================================
| Conflicts |          ORIGINAL         |          LEARNT          | Num Sols |      SUBGRAPHS      |
|           |    Vars  Clauses Literals |    Limit  Clauses Lit/Cl |          | Canonical Noncanon. |
=====================================================================================================
|       115 |    3408   362152 35488719 |     2000      115     73 |        0 |        21        15 |
|       370 |    3408   362257 35490603 |     2000      370     71 |        0 |        50       120 |
|       914 |    3408   362576 35496775 |     2000      914     60 |        0 |       177       439 |
|      1271 |    3408   362596 35497358 |     2000     1271     71 |        0 |       191       459 |
|      1800 |    3408   362619 35497842 |     2000     1800     83 |        0 |       206       482 |
|      2570 |    3408   362630 35498324 |     3602     1572     58 |        0 |       215       493 |
|      3725 |    3408   362646 35498769 |     3602     2727     86 |        0 |       230       509 |
|      5495 |    3408   362708 35500073 |     5001     2696     71 |        0 |       278       571 |
|      8155 |    3408   362806 35502452 |     6306     2861     49 |        0 |       324       669 |
|     12171 |    3408   362978 35505866 |     7555     3726     45 |        0 |       414       841 |
|     21109 |    3408   366150 35557312 |     9995     4504     21 |        0 |       857      4013 |
|     39520 |    3408   375912 35740331 |    12404    12324     45 |        0 |      2832     13775 |
|     72418 |    3408   395836 36100744 |    17209    16827     23 |        0 |      6589     33699 |
|    110278 |    3408   414235 36411998 |    22009    16687     18 |        0 |      9184     52098 |
|    171279 |    3408   446044 36957566 |    28014    16693     23 |        0 |     13475     83907 |
|    222782 |    3408   453758 37121742 |    31619    24401     50 |        0 |     14644     91621 |
|    332850 |    3408   498142 37893443 |    38827    30677     40 |        0 |     21156    136005 |
|    490338 |    3408   557104 38857153 |    47216    39754     25 |        0 |     31115    194967 |
|    783607 |    3408   702584 41037142 |    60417    40424     27 |        0 |     49508    340447 |
|   1250548 |    3408   947842 44366778 |    76025    67973     58 |        0 |     68431    585705 |
=====================================================================================================
Number of solutions   : 0
Canonical subgraphs   : 76770          (16 /sec)
          order  3    : 1              (166667 /sec)
          order  4    : 1              (500000 /sec)
          order  5    : 1              (250000 /sec)
          order  6    : 1              (58824 /sec)
          order  7    : 1              (7937 /sec)
          order  8    : 2              (1361 /sec)
          order  9    : 6              (315 /sec)
          order 10    : 28             (103 /sec)
          order 11    : 112            (31 /sec)
          order 12    : 425            (13 /sec)
          order 13    : 3647           (15 /sec)
          order 14    : 45058          (15 /sec)
          order 15    : 12239          (22 /sec)
          order 16    : 8252           (17 /sec)
          order 17    : 4458           (13 /sec)
          order 18    : 2147           (9 /sec)
          order 19    : 344            (11 /sec)
          order 20    : 30             (11 /sec)
          order 21    : 17             (13 /sec)
          order 22    : 0              (-nan /sec)
Noncanonical subgraphs: 698637         (108 /sec)
          order  3    : 0              (-nan /sec)
          order  4    : 0              (-nan /sec)
          order  5    : 0              (-nan /sec)
          order  6    : 0              (-nan /sec)
          order  7    : 0              (-nan /sec)
          order  8    : 0              (-nan /sec)
          order  9    : 0              (-nan /sec)
          order 10    : 0              (-nan /sec)
          order 11    : 0              (-nan /sec)
          order 12    : 0              (-nan /sec)
          order 13    : 12457          (2764 /sec)
          order 14    : 72155          (862 /sec)
          order 15    : 586437         (97 /sec)
          order 16    : 12471          (163 /sec)
          order 17    : 9067           (94 /sec)
          order 18    : 6030           (44 /sec)
          order 19    : 0              (-nan /sec)
          order 20    : 1              (3356 /sec)
          order 21    : 0              (-nan /sec)
Canonicity checking   : 4891.23 s
Noncanonicity checking: 6470.31 s
Total canonicity time : 11361.5 s
database reductions   : 68
restarts              : 2970
conflicts             : 1511799        (124 /sec)
decisions             : 2484223        (0.00 % random) (204 /sec)
propagations          : 69430526       (5698 /sec)
conflict literals     : 102269609      (54.47 % deleted)
actual reward         : 0.205043
Memory used           : 632.00 MB
CPU time              : 12185.3 s

UNSATISFIABLE
